82 42 78 99 43 95 34 71 62 54 22 83 72 18 25 52 4 32 44 6 20 5 94 57 2 81 21 79 39 47 8 16 56 77 12 98 30 61 91 92 41 76 31 58 67 45 96 35 37 10 70 51 15 46 55 49 84 29 27 13 11 88 9 36 17 63 64 97 24 40 7 33 53 26 66 23 28 59 86 90 19 75 87 60 0 38 80 50 1 93 74 3 89 14 48 65 68 69 85 73
